(set-logic QF_S)
(declare-fun var0 () String)
(declare-fun var1 () String)
(declare-fun var2 () String)
(declare-fun var3 () String)
(declare-fun var4 () String)
(declare-fun var5 () String)
(declare-fun var6 () String)
(declare-fun var7 () String)
(declare-fun var8 () String)
(declare-fun var9 () String)
(declare-fun var10 () String)
(declare-fun var11 () String)
(declare-fun var12 () String)
(declare-fun var13 () String)
(declare-fun var14 () String)
(declare-fun var15 () String)
(declare-fun var16 () String)
(declare-fun var17 () String)
(declare-fun var18 () String)
(declare-fun var19 () String)
(declare-fun var20 () String)
(declare-fun var21 () String)
(declare-fun var22 () String)
(declare-fun var23 () String)
(declare-fun var24 () String)
(declare-fun var25 () String)
(declare-fun var26 () String)
(declare-fun var27 () String)
(declare-fun var28 () String)
(declare-fun var29 () String)
(declare-fun var30 () String)
(declare-fun var31 () String)
(declare-fun var32 () String)
(declare-fun var33 () String)
(declare-fun var34 () String)
(declare-fun var35 () String)
(declare-fun var36 () String)
(declare-fun var37 () String)
(declare-fun var38 () String)
(declare-fun var39 () String)
(declare-fun var40 () String)
(declare-fun var41 () String)
(declare-fun var42 () String)
(declare-fun var43 () String)
(declare-fun var44 () String)
(declare-fun var45 () String)
(declare-fun var46 () String)
(declare-fun var47 () String)
(declare-fun var48 () String)
(declare-fun var49 () String)
(declare-fun var50 () String)
(declare-fun var51 () String)
(declare-fun var52 () String)
(declare-fun var53 () String)
(declare-fun var54 () String)
(declare-fun var55 () String)
(declare-fun var56 () String)
(declare-fun var57 () String)
(declare-fun var58 () String)
(declare-fun var59 () String)
(declare-fun var60 () String)
(assert (= var0 (Concat var1 var2)))
(assert (= var2 (Concat var3 var4)))
(assert (= var4 (Concat var5 var6)))
(assert (= var6 (Concat var7 var8)))
(assert (= var8 (Concat var9 var10)))
(assert (= var10 (Concat var11 var12)))
(assert (= var12 (Concat var13 var14)))
(assert (= var14 (Concat var15 var16)))
(assert (= var16 (Concat var17 var18)))
(assert (= var18 (Concat var19 var20)))
(assert (= var20 (Concat var21 var22)))
(assert (= var22 (Concat var23 var24)))
(assert (= var24 (Concat var25 var26)))
(assert (= var26 (Concat var27 var28)))
(assert (= var28 (Concat var29 var30)))
(assert (= var30 (Concat var31 var32)))
(assert (= var32 (Concat var33 var34)))
(assert (= var34 (Concat var35 var36)))
(assert (= var36 (Concat var37 var38)))
(assert (= var38 (Concat var39 var40)))
(assert (= var40 (Concat var41 var42)))
(assert (= var42 (Concat var43 var44)))
(assert (= var44 (Concat var45 var46)))
(assert (= var46 (Concat var47 var48)))
(assert (= var48 (Concat var49 var50)))
(assert (= var50 (Concat var51 var52)))
(assert (= var52 (Concat var53 var54)))
(assert (= var54 (Concat var55 var56)))
(assert (= var56 (Concat var57 var58)))
(assert (= var58 (Concat var59 var60)))
(assert (= var0 "solution"))
(assert (= "|" (CharAt var31 977)))
(assert (= "|" (CharAt var40 210)))
(assert (= "\\" (CharAt var55 509)))
(assert (= "e" (CharAt var14 750)))
(assert (= "r" (CharAt var11 744)))
(assert (= "u" (CharAt var27 954)))
(assert (= "7" (CharAt var29 352)))
(assert (= "D" (CharAt var45 181)))
(assert (= "F" (CharAt var31 275)))
(assert (= "&" (CharAt var58 7)))
(assert (= "u" (CharAt var34 39)))
(assert (= "[" (CharAt var1 568)))
(assert (= "n" (CharAt var24 901)))
(assert (= "," (CharAt var20 254)))
(assert (= "{" (CharAt var25 326)))
(assert (= "#" (CharAt var12 324)))
(assert (= "3" (CharAt var6 938)))
(assert (= "b" (CharAt var41 816)))
(assert (= "3" (CharAt var24 574)))
(assert (= "." (CharAt var18 178)))
(assert (= "V" (CharAt var57 872)))
(assert (= "P" (CharAt var23 77)))
(assert (= "M" (CharAt var8 648)))
(assert (= "&" (CharAt var28 571)))
(assert (= "1" (CharAt var57 607)))
(assert (= "?" (CharAt var37 533)))
(assert (= "0" (CharAt var27 891)))
(assert (= "t" (CharAt var57 211)))
(assert (= "p" (CharAt var17 427)))
(assert (= "|" (CharAt var9 446)))
(assert (= "^" (CharAt var41 137)))
(assert (= "Z" (CharAt var43 500)))
(assert (= "M" (CharAt var38 895)))
(assert (= "O" (CharAt var37 750)))
(assert (= "!" (CharAt var43 259)))
(assert (= "z" (CharAt var20 686)))
(assert (= "\\" (CharAt var17 688)))
(assert (= "W" (CharAt var48 147)))
(assert (= "P" (CharAt var30 857)))
(assert (= "I" (CharAt var11 634)))
(assert (= "|" (CharAt var10 904)))
(assert (= "x" (CharAt var11 567)))
(assert (= "0" (CharAt var0 27)))
(assert (= "E" (CharAt var58 850)))
(assert (= "`" (CharAt var13 531)))
(assert (= "&" (CharAt var44 823)))
(assert (= "d" (CharAt var37 702)))
(assert (= "Z" (CharAt var47 19)))
(assert (= "L" (CharAt var19 973)))
(assert (= "4" (CharAt var22 664)))
(assert (= "c" (CharAt var11 104)))
(assert (= "/" (CharAt var53 498)))
(assert (= "5" (CharAt var51 623)))
(assert (= "A" (CharAt var23 722)))
(assert (= "k" (CharAt var15 419)))
(assert (= "4" (CharAt var27 942)))
(assert (= "+" (CharAt var37 305)))
(assert (= "e" (CharAt var53 277)))
(assert (= "C" (CharAt var17 15)))
(assert (= "g" (CharAt var0 209)))
(assert (= "J" (CharAt var8 750)))
(assert (= "8" (CharAt var41 71)))
(assert (= "X" (CharAt var8 765)))
(assert (= "\\" (CharAt var48 920)))
(assert (= "," (CharAt var10 227)))
(assert (= "F" (CharAt var33 605)))
(assert (= "?" (CharAt var47 254)))
(assert (= "/" (CharAt var15 683)))
(assert (= "q" (CharAt var56 605)))
(assert (= "%" (CharAt var20 889)))
(assert (= "I" (CharAt var17 179)))
(assert (= "s" (CharAt var15 585)))
(assert (= "!" (CharAt var30 654)))
(assert (= "\"" (CharAt var60 429)))
(assert (= "s" (CharAt var30 891)))
(assert (= "%" (CharAt var57 82)))
(assert (= "j" (CharAt var1 341)))
(assert (= "]" (CharAt var8 818)))
(assert (= "$" (CharAt var60 156)))
(assert (= "Z" (CharAt var55 574)))
(assert (= "k" (CharAt var22 532)))
(assert (= ")" (CharAt var18 495)))
(assert (= "T" (CharAt var8 898)))
(assert (= "Y" (CharAt var14 932)))
(assert (= "E" (CharAt var8 413)))
(assert (= "+" (CharAt var34 83)))
(assert (= "O" (CharAt var16 987)))
(assert (= "<" (CharAt var45 17)))
(assert (= "'" (CharAt var28 611)))
(assert (= "!" (CharAt var47 555)))
(assert (= "I" (CharAt var29 22)))
(assert (= "?" (CharAt var12 823)))
(assert (= "N" (CharAt var54 470)))
(assert (= "S" (CharAt var26 537)))
(assert (= ";" (CharAt var57 384)))
(assert (= "N" (CharAt var20 894)))
(assert (= "w" (CharAt var46 74)))
(assert (= "I" (CharAt var5 875)))
(assert (= "," (CharAt var1 124)))
(assert (= "R" (CharAt var16 921)))
(assert (= "r" (CharAt var60 729)))
(assert (= "q" (CharAt var1 60)))
(assert (= "2" (CharAt var43 7)))
(assert (= "3" (CharAt var12 308)))
(assert (= "z" (CharAt var14 335)))
(assert (= "F" (CharAt var28 108)))
(assert (= "[" (CharAt var55 953)))
(assert (= "D" (CharAt var53 595)))
(assert (= "f" (CharAt var40 487)))
(assert (= "s" (CharAt var44 740)))
(assert (= "=" (CharAt var1 866)))
(assert (= ")" (CharAt var11 758)))
(assert (= "y" (CharAt var14 919)))
(assert (= "j" (CharAt var30 917)))
(assert (= "O" (CharAt var57 998)))
(assert (= "V" (CharAt var8 122)))
(assert (= "R" (CharAt var38 229)))
(assert (= "Y" (CharAt var26 912)))
(assert (= "r" (CharAt var3 726)))
(assert (= "f" (CharAt var45 257)))
(assert (= "r" (CharAt var27 543)))
(assert (= "7" (CharAt var29 667)))
(assert (= "6" (CharAt var3 643)))
(assert (= "," (CharAt var35 307)))
(assert (= "?" (CharAt var35 47)))
(assert (= ";" (CharAt var53 967)))
(assert (= "l" (CharAt var51 850)))
(assert (= "V" (CharAt var16 558)))
(assert (= "%" (CharAt var24 18)))
(assert (= "?" (CharAt var11 789)))
(assert (= "@" (CharAt var9 905)))
(assert (= "?" (CharAt var60 814)))
(assert (= ":" (CharAt var55 928)))
(assert (= "\"" (CharAt var56 214)))
(assert (= "(" (CharAt var45 868)))
(assert (= "z" (CharAt var40 437)))
(assert (= "2" (CharAt var55 914)))
(assert (= "]" (CharAt var16 545)))
(assert (= "g" (CharAt var8 688)))
(assert (= "U" (CharAt var56 422)))
(assert (= "f" (CharAt var52 198)))
(assert (= "-" (CharAt var5 805)))
(assert (= "E" (CharAt var56 40)))
(assert (= "?" (CharAt var0 541)))
(assert (= "0" (CharAt var26 164)))
(assert (= "k" (CharAt var12 416)))
(assert (= "-" (CharAt var54 332)))
(assert (= "@" (CharAt var59 780)))
(assert (= "O" (CharAt var24 350)))
(assert (= "+" (CharAt var23 454)))
(assert (= "p" (CharAt var46 220)))
(assert (= "G" (CharAt var13 788)))
(assert (= "|" (CharAt var28 669)))
(assert (= "1" (CharAt var30 535)))
(assert (= "?" (CharAt var1 958)))
(assert (= "!" (CharAt var47 243)))
(assert (= "G" (CharAt var2 634)))
(assert (= "g" (CharAt var30 653)))
(assert (= "~" (CharAt var38 587)))
(assert (= "<" (CharAt var58 151)))
(assert (= "u" (CharAt var7 936)))
(assert (= "l" (CharAt var21 863)))
(assert (= "<" (CharAt var30 936)))
(assert (= "S" (CharAt var20 31)))
(assert (= "f" (CharAt var20 496)))
(assert (= ":" (CharAt var59 87)))
(assert (= "@" (CharAt var1 55)))
(assert (= "a" (CharAt var4 180)))
(assert (= "f" (CharAt var3 209)))
(assert (= "y" (CharAt var22 244)))
(assert (= "d" (CharAt var36 530)))
(assert (= "9" (CharAt var9 49)))
(assert (= "J" (CharAt var10 176)))
(assert (= "Y" (CharAt var1 711)))
(assert (= "E" (CharAt var39 248)))
(assert (= "S" (CharAt var48 881)))
(assert (= "&" (CharAt var22 833)))
(assert (= "`" (CharAt var35 651)))
(assert (= "^" (CharAt var22 554)))
(assert (= "{" (CharAt var56 374)))
(assert (= "w" (CharAt var30 115)))
(assert (= "=" (CharAt var4 854)))
(assert (= "Q" (CharAt var53 564)))
(assert (= "~" (CharAt var24 323)))
(assert (= "}" (CharAt var1 519)))
(assert (= "e" (CharAt var17 234)))
(assert (= "f" (CharAt var15 151)))
(assert (= "0" (CharAt var27 879)))
(assert (= "=" (CharAt var58 200)))
(assert (= "0" (CharAt var29 108)))
(assert (= "A" (CharAt var45 221)))
(assert (= "7" (CharAt var54 567)))
(assert (= "d" (CharAt var24 534)))
(assert (= "P" (CharAt var29 523)))
(assert (= ":" (CharAt var20 60)))
(assert (= "J" (CharAt var40 949)))
(assert (= "}" (CharAt var18 859)))
(assert (= "\\" (CharAt var43 210)))
(assert (= "K" (CharAt var14 659)))
(assert (= "6" (CharAt var29 141)))
(assert (= "_" (CharAt var17 239)))
(assert (= "V" (CharAt var48 635)))
(assert (= "s" (CharAt var21 797)))
(assert (= "%" (CharAt var52 713)))
(assert (= "'" (CharAt var53 177)))
(assert (= "r" (CharAt var33 555)))
(assert (= "c" (CharAt var23 130)))
(assert (= "J" (CharAt var10 407)))
(assert (= "E" (CharAt var51 537)))
(assert (= "{" (CharAt var13 66)))
(assert (= "#" (CharAt var46 912)))
(assert (= "s" (CharAt var44 810)))
(assert (= "&" (CharAt var13 308)))
(assert (= "F" (CharAt var11 584)))
(assert (= "w" (CharAt var7 519)))
(assert (= "R" (CharAt var30 590)))
(assert (= "@" (CharAt var8 849)))
(assert (= "#" (CharAt var32 715)))
(assert (= "!" (CharAt var29 606)))
(assert (= "T" (CharAt var25 40)))
(assert (= "t" (CharAt var59 811)))
(assert (= "r" (CharAt var59 52)))
(assert (= "c" (CharAt var25 329)))
(assert (= "K" (CharAt var46 18)))
(assert (= "8" (CharAt var19 210)))
(assert (= "E" (CharAt var48 593)))
(assert (= "~" (CharAt var34 143)))
(assert (= "?" (CharAt var7 262)))
(assert (= "A" (CharAt var33 517)))
(assert (= "s" (CharAt var17 245)))
(assert (= "u" (CharAt var43 461)))
(assert (= "@" (CharAt var42 560)))
(assert (= "2" (CharAt var20 885)))
(assert (= "q" (CharAt var33 762)))
(assert (= "," (CharAt var49 126)))
(assert (= "F" (CharAt var22 595)))
(assert (= "j" (CharAt var2 691)))
(assert (= "k" (CharAt var55 594)))
(assert (= "{" (CharAt var29 660)))
(assert (= "|" (CharAt var45 786)))
(assert (= "7" (CharAt var21 323)))
(assert (= "3" (CharAt var20 581)))
(assert (= "5" (CharAt var27 243)))
(assert (= "a" (CharAt var23 169)))
(assert (= "3" (CharAt var13 77)))
(assert (= "e" (CharAt var1 6)))
(assert (= "9" (CharAt var48 861)))
(assert (= "%" (CharAt var30 885)))
(assert (= "a" (CharAt var30 737)))
(assert (= "&" (CharAt var39 705)))
(assert (= "X" (CharAt var35 660)))
(assert (= "p" (CharAt var38 135)))
(assert (= "1" (CharAt var37 763)))
(assert (= "U" (CharAt var57 588)))
(assert (= "f" (CharAt var31 269)))
(assert (= "J" (CharAt var10 323)))
(assert (= "P" (CharAt var45 682)))
(assert (= "*" (CharAt var48 984)))
(assert (= "w" (CharAt var35 951)))
(assert (= "&" (CharAt var6 198)))
(assert (= "j" (CharAt var11 606)))
(assert (= "P" (CharAt var27 75)))
(assert (= "f" (CharAt var59 669)))
(assert (= "o" (CharAt var16 824)))
(assert (= "D" (CharAt var33 450)))
(assert (= "e" (CharAt var26 874)))
(assert (= "8" (CharAt var48 500)))
(assert (= "^" (CharAt var52 69)))
(assert (= "\\" (CharAt var33 17)))
(assert (= "x" (CharAt var4 646)))
(assert (= "[" (CharAt var14 188)))
(assert (= "S" (CharAt var54 388)))
(assert (= "d" (CharAt var43 898)))
(assert (= "8" (CharAt var25 561)))
(assert (= "s" (CharAt var14 579)))
(assert (= ";" (CharAt var22 31)))
(assert (= "#" (CharAt var26 113)))
(assert (= "?" (CharAt var50 329)))
(assert (= "x" (CharAt var19 683)))
(assert (= "F" (CharAt var53 370)))
(assert (= "s" (CharAt var44 455)))
(assert (= ">" (CharAt var1 923)))
(assert (= "Z" (CharAt var45 841)))
(assert (= "e" (CharAt var31 637)))
(assert (= "&" (CharAt var55 396)))
(assert (= "\\" (CharAt var45 179)))
(assert (= "y" (CharAt var26 234)))
(assert (= "f" (CharAt var30 692)))
(assert (= "I" (CharAt var42 41)))
(assert (= "c" (CharAt var18 778)))
(assert (= "D" (CharAt var20 140)))
(assert (= "~" (CharAt var49 93)))
(assert (= "h" (CharAt var55 649)))
(assert (= "<" (CharAt var27 814)))
(assert (= "3" (CharAt var45 200)))
(assert (= "@" (CharAt var9 22)))
(assert (= "J" (CharAt var54 980)))
(assert (= "{" (CharAt var58 75)))
(assert (= "x" (CharAt var43 593)))
(assert (= "p" (CharAt var48 10)))
(assert (= "^" (CharAt var23 48)))
(assert (= "u" (CharAt var34 702)))
(assert (= "I" (CharAt var31 395)))
(assert (= "T" (CharAt var24 146)))
(assert (= "L" (CharAt var1 431)))
(assert (= "L" (CharAt var53 88)))
(assert (= "p" (CharAt var47 930)))
(assert (= "s" (CharAt var35 51)))
(assert (= "h" (CharAt var43 487)))
(assert (= "." (CharAt var38 261)))
(assert (= "U" (CharAt var55 887)))
(assert (= "i" (CharAt var32 965)))
(assert (= "4" (CharAt var45 547)))
(assert (= "R" (CharAt var24 109)))
(assert (= "5" (CharAt var26 1)))
(assert (= "Q" (CharAt var42 517)))
(assert (= "j" (CharAt var60 304)))
(assert (= "r" (CharAt var52 689)))
(assert (= "s" (CharAt var29 849)))
(assert (= "7" (CharAt var1 884)))
(assert (= "S" (CharAt var45 715)))
(check-sat)
(get-model)